Gurobi 12.0.1:   lim:time = 500
  mip:bestbound = 1
Set parameter LogToConsole to value 1
  tech:outlev = 1
Set parameter InfUnbdInfo to value 1
Gurobi Optimizer version 12.0.1 build v12.0.1rc0 (win64 - Windows 11.0 (26100.2))

CPU model: Intel(R) Core(TM) i7-10700 CPU @ 2.90GHz, instruction set [SSE2|AVX|AVX2]
Thread count: 8 physical cores, 16 logical processors, using up to 16 threads

Non-default parameters:
TimeLimit  500
InfUnbdInfo  1

Optimize a model with 258 rows, 275 columns and 1471 nonzeros
Model fingerprint: 0xff26c906
Model has 1 quadratic objective term
Model has 5 quadratic constraints
Variable types: 20 continuous, 255 integer (0 binary)
Coefficient statistics:
  Matrix range     [1e+00, 1e+05]
  QMatrix range    [1e+00, 1e+00]
  QLMatrix range   [1e+00, 2e+01]
  Objective range  [2e+01, 3e+02]
  QObjective range [2e+00, 2e+00]
  Bounds range     [1e+00, 8e+01]
  RHS range        [1e+00, 1e+05]
  QRHS range       [2e+01, 1e+02]
Presolve removed 12 rows and 9 columns
Presolve time: 0.01s
Presolved: 349 rows, 363 columns, 2100 nonzeros
Variable types: 65 continuous, 298 integer (297 binary)
Found heuristic solution: objective 1419.5400000

Root relaxation: objective 6.035297e+02, 42 iterations, 0.00 seconds (0.00 work units)

    Nodes    |    Current Node    |     Objective Bounds      |     Work
 Expl Unexpl |  Obj  Depth IntInf | Incumbent    BestBd   Gap | It/Node Time

     0     0  603.52975    0   12 1419.54000  603.52975  57.5%     -    0s
H    0     0                    1341.4800000  603.52975  55.0%     -    0s
H    0     0                    1210.8000000  603.52975  50.2%     -    0s
     0     0  645.02395    0   19 1210.80000  645.02395  46.7%     -    0s
     0     0  671.88000    0   20 1210.80000  671.88000  44.5%     -    0s
     0     0  672.48000    0   12 1210.80000  672.48000  44.5%     -    0s
     0     0  672.48000    0   12 1210.80000  672.48000  44.5%     -    0s
H    0     0                    1090.6800000  672.48000  38.3%     -    0s
     0     0  672.48000    0   12 1090.68000  672.48000  38.3%     -    0s
H    0     0                     964.8000000  672.48000  30.3%     -    0s
H    0     0                     962.7600000  672.48000  30.2%     -    0s
     0     0  672.48000    0   12  962.76000  672.48000  30.2%     -    0s
     0     2  672.48000    0   12  962.76000  672.48000  30.2%     -    0s
H  129   106                     945.4800000  687.26304  27.3%   7.7    0s
*  140   106              14     910.2600000  687.26304  24.5%   7.5    0s
*  537   180               9     858.3900000  718.35000  16.3%   6.1    0s

Cutting planes:
  Learned: 6
  Gomory: 1
  Cover: 3
  Implied bound: 9
  Clique: 2
  MIR: 3
  Flow cover: 2
  Inf proof: 7
  RLT: 6
  Relax-and-lift: 2

Explored 1162 nodes (7897 simplex iterations) in 0.19 seconds (0.18 work units)
Thread count was 16 (of 16 available processors)

Solution count 9: 858.39 910.26 945.48 ... 1419.54

Optimal solution found (tolerance 1.00e-04)
Best objective 8.583900000000e+02, best bound 8.583900000000e+02, gap 0.0000%

AMPL MP initial flat model has 275 variables (0 integer, 255 binary);
Objectives: 1 quadratic; 
Constraints:  258 linear; 5 quadratic;

AMPL MP final model has 275 variables (0 integer, 255 binary);
Objectives: 1 quadratic; 
Constraints:  258 linear; 5 quadratic;


-----RESULTS INFO-----
running_time:  0.25
TC.best_bound:  858.39
TC:  858.39
MIP Gap (%):  0
=== Vehicle Routes ===
Vehicle 1: 0 → 1
Vehicle 1: 1 → 15
Vehicle 1: 2 → 3
Vehicle 1: 3 → 17
Vehicle 1: 15 → 2
Vehicle 2: 0 → 8
Vehicle 2: 8 → 17
Vehicle 3: 0 → 17

=== Full Vehicle Routes ===
Vehicle 1: 0 → 1 → 15 → 2 → 3 → 0 (58<100)
Vehicle 2: 0 → 8 → 0 (59<100)
Vehicle 3: 0 → 0 (0<100)
Arc used by MRT line: y variables:
MRT used: 8 → 9
Customer assigment to PL: u variables:
4 9
5 15
6 8
7 8
Node is served by regular vehicle: g variables:
1
2
3
15
8
Customer assigment to Home delivery: gm variables:
1
2
3
Node total demands: ntd variables:
1 2 1
2 19 1
3 16 1
6 0 0
7 0 0
14 0 0
15 21 1
16 0 0
8 59 1
9 0 0
10 0 0
11 0 0
12 0 0
13 0 0
Customer's demand delivered to PL: l variables:
4
5
6
7
